(declare-fun ExpandObjSwitcher () Real)
(declare-fun Constructed_Argument_t () String)
(declare-fun Constructed_Argument_2_t () String)
(declare-fun Constructed_Argument_2_Array_Length () Int)
(declare-fun CreateAsClass () Bool)
(declare-fun Constructed_Argument_elements_prototype_0_t () String)
(declare-fun CreateAsClass_2 () Bool)
(declare-fun Constructed_Argument_elements_call_1_t () String)
(assert (= ExpandObjSwitcher 0.0))
(assert (= Constructed_Argument_t "object"))
(assert (= Constructed_Argument_2_t "array_bool"))
(assert (>= Constructed_Argument_2_Array_Length 0))
(assert (not CreateAsClass))
(assert (= Constructed_Argument_elements_prototype_0_t "object"))
(assert (not CreateAsClass_2))
(assert (= Constructed_Argument_elements_call_1_t "string"))
(check-sat)
